120
150
76
27
83
75
73
36
60
61
47
73
76
30
29
54
50
46
99
47
88
41
36
23
47
41
100
47
26
47
36
72
78
66
38
46
52
43
78
71
25
75
75
88
21
75
40
60
88
54
95
41
41
72
78
83
25
88
25
54
41
54
36
78
72
36
73
77
35
30
47
98
67
83
95
66
25
59
100
95
54
36
47
96
69
28
75
75
67
83
54
53
88
62
72
78
21
47
36
88
67
62
67
86
83
23
53
37
88
62
98
98
73
77
60
47
47
41
75
75
67
83
